p cnf 18 29
3 -3 0
4 -4 0
2 -2 0
1 -1 0
5 -5 0
1 7 0
-7 8 0
2 -7 9 0
-9 10 0
3 -9 11 0
-11 12 0
4 -11 0
2 8 0
3 -8 10 0
4 -10 12 0
5 -12 0
-1 13 0
-13 14 0
-2 -13 15 0
-15 16 0
-3 -15 0
-2 14 0
-14 17 0
-3 -14 16 0
-16 18 0
-4 -16 0
-3 17 0
-4 -17 18 0
-5 -18 0
